p cnf 48 456
-13 -14 0
-13 -15 0
-13 -16 0
-13 -17 0
-13 -18 0
-13 -19 0
-13 -20 0
-13 -21 0
-13 -22 0
-13 -23 0
-13 -24 0
-14 -15 0
-14 -16 0
-14 -17 0
-14 -18 0
-14 -19 0
-14 -20 0
-14 -21 0
-14 -22 0
-14 -23 0
-14 -24 0
-15 -16 0
-15 -17 0
-15 -18 0
-15 -19 0
-15 -20 0
-15 -21 0
-15 -22 0
-15 -23 0
-15 -24 0
-16 -17 0
-16 -18 0
-16 -19 0
-16 -20 0
-16 -21 0
-16 -22 0
-16 -23 0
-16 -24 0
-17 -18 0
-17 -19 0
-17 -20 0
-17 -21 0
-17 -22 0
-17 -23 0
-17 -24 0
-18 -19 0
-18 -20 0
-18 -21 0
-18 -22 0
-18 -23 0
-18 -24 0
-19 -20 0
-19 -21 0
-19 -22 0
-19 -23 0
-19 -24 0
-20 -21 0
-20 -22 0
-20 -23 0
-20 -24 0
-21 -22 0
-21 -23 0
-21 -24 0
-22 -23 0
-22 -24 0
-23 -24 0
-25 -26 0
-25 -27 0
-25 -28 0
-25 -29 0
-25 -30 0
-25 -31 0
-25 -32 0
-25 -33 0
-25 -34 0
-25 -35 0
-25 -36 0
-26 -27 0
-26 -28 0
-26 -29 0
-26 -30 0
-26 -31 0
-26 -32 0
-26 -33 0
-26 -34 0
-26 -35 0
-26 -36 0
-27 -28 0
-27 -29 0
-27 -30 0
-27 -31 0
-27 -32 0
-27 -33 0
-27 -34 0
-27 -35 0
-27 -36 0
-28 -29 0
-28 -30 0
-28 -31 0
-28 -32 0
-28 -33 0
-28 -34 0
-28 -35 0
-28 -36 0
-29 -30 0
-29 -31 0
-29 -32 0
-29 -33 0
-29 -34 0
-29 -35 0
-29 -36 0
-30 -31 0
-30 -32 0
-30 -33 0
-30 -34 0
-30 -35 0
-30 -36 0
-31 -32 0
-31 -33 0
-31 -34 0
-31 -35 0
-31 -36 0
-32 -33 0
-32 -34 0
-32 -35 0
-32 -36 0
-33 -34 0
-33 -35 0
-33 -36 0
-34 -35 0
-34 -36 0
-35 -36 0
-37 -38 0
-37 -39 0
-37 -40 0
-37 -41 0
-37 -42 0
-37 -43 0
-37 -44 0
-37 -45 0
-37 -46 0
-37 -47 0
-37 -48 0
-38 -39 0
-38 -40 0
-38 -41 0
-38 -42 0
-38 -43 0
-38 -44 0
-38 -45 0
-38 -46 0
-38 -47 0
-38 -48 0
-39 -40 0
-39 -41 0
-39 -42 0
-39 -43 0
-39 -44 0
-39 -45 0
-39 -46 0
-39 -47 0
-39 -48 0
-40 -41 0
-40 -42 0
-40 -43 0
-40 -44 0
-40 -45 0
-40 -46 0
-40 -47 0
-40 -48 0
-41 -42 0
-41 -43 0
-41 -44 0
-41 -45 0
-41 -46 0
-41 -47 0
-41 -48 0
-42 -43 0
-42 -44 0
-42 -45 0
-42 -46 0
-42 -47 0
-42 -48 0
-43 -44 0
-43 -45 0
-43 -46 0
-43 -47 0
-43 -48 0
-44 -45 0
-44 -46 0
-44 -47 0
-44 -48 0
-45 -46 0
-45 -47 0
-45 -48 0
-46 -47 0
-46 -48 0
-47 -48 0
-14 -25 0
-15 -25 0
-16 -25 0
-17 -25 0
-18 -25 0
-19 -25 0
-20 -25 0
-21 -25 0
-22 -25 0
-23 -25 0
-24 -25 0
-15 -26 0
-16 -26 0
-17 -26 0
-18 -26 0
-19 -26 0
-20 -26 0
-21 -26 0
-22 -26 0
-23 -26 0
-24 -26 0
-16 -27 0
-17 -27 0
-18 -27 0
-19 -27 0
-20 -27 0
-21 -27 0
-22 -27 0
-23 -27 0
-24 -27 0
-17 -28 0
-18 -28 0
-19 -28 0
-20 -28 0
-21 -28 0
-22 -28 0
-23 -28 0
-24 -28 0
-18 -29 0
-19 -29 0
-20 -29 0
-21 -29 0
-22 -29 0
-23 -29 0
-24 -29 0
-19 -30 0
-20 -30 0
-21 -30 0
-22 -30 0
-23 -30 0
-24 -30 0
-20 -31 0
-21 -31 0
-22 -31 0
-23 -31 0
-24 -31 0
-21 -32 0
-22 -32 0
-23 -32 0
-24 -32 0
-22 -33 0
-23 -33 0
-24 -33 0
-23 -34 0
-24 -34 0
-24 -35 0
-14 -37 0
-15 -37 0
-16 -37 0
-17 -37 0
-18 -37 0
-19 -37 0
-20 -37 0
-21 -37 0
-22 -37 0
-23 -37 0
-24 -37 0
-15 -38 0
-16 -38 0
-17 -38 0
-18 -38 0
-19 -38 0
-20 -38 0
-21 -38 0
-22 -38 0
-23 -38 0
-24 -38 0
-16 -39 0
-17 -39 0
-18 -39 0
-19 -39 0
-20 -39 0
-21 -39 0
-22 -39 0
-23 -39 0
-24 -39 0
-17 -40 0
-18 -40 0
-19 -40 0
-20 -40 0
-21 -40 0
-22 -40 0
-23 -40 0
-24 -40 0
-18 -41 0
-19 -41 0
-20 -41 0
-21 -41 0
-22 -41 0
-23 -41 0
-24 -41 0
-19 -42 0
-20 -42 0
-21 -42 0
-22 -42 0
-23 -42 0
-24 -42 0
-20 -43 0
-21 -43 0
-22 -43 0
-23 -43 0
-24 -43 0
-21 -44 0
-22 -44 0
-23 -44 0
-24 -44 0
-22 -45 0
-23 -45 0
-24 -45 0
-23 -46 0
-24 -46 0
-24 -47 0
-26 -37 0
-27 -37 0
-28 -37 0
-29 -37 0
-30 -37 0
-31 -37 0
-32 -37 0
-33 -37 0
-34 -37 0
-35 -37 0
-36 -37 0
-27 -38 0
-28 -38 0
-29 -38 0
-30 -38 0
-31 -38 0
-32 -38 0
-33 -38 0
-34 -38 0
-35 -38 0
-36 -38 0
-28 -39 0
-29 -39 0
-30 -39 0
-31 -39 0
-32 -39 0
-33 -39 0
-34 -39 0
-35 -39 0
-36 -39 0
-29 -40 0
-30 -40 0
-31 -40 0
-32 -40 0
-33 -40 0
-34 -40 0
-35 -40 0
-36 -40 0
-30 -41 0
-31 -41 0
-32 -41 0
-33 -41 0
-34 -41 0
-35 -41 0
-36 -41 0
-31 -42 0
-32 -42 0
-33 -42 0
-34 -42 0
-35 -42 0
-36 -42 0
-32 -43 0
-33 -43 0
-34 -43 0
-35 -43 0
-36 -43 0
-33 -44 0
-34 -44 0
-35 -44 0
-36 -44 0
-34 -45 0
-35 -45 0
-36 -45 0
-35 -46 0
-36 -46 0
-36 -47 0
-13 1 0
-14 2 0
-15 3 0
-16 4 0
-17 5 0
-18 6 0
-19 7 0
-20 8 0
-21 9 0
-22 10 0
-23 11 0
-24 12 0
-25 1 0
-26 2 0
-27 3 0
-28 4 0
-29 5 0
-30 6 0
-31 7 0
-32 8 0
-33 9 0
-34 10 0
-35 11 0
-36 12 0
-37 1 0
-38 2 0
-39 3 0
-40 4 0
-41 5 0
-42 6 0
-43 7 0
-44 8 0
-45 9 0
-46 10 0
-47 11 0
-48 12 0
-1 13 25 37 0
-2 14 26 38 0
-3 15 27 39 0
-4 16 28 40 0
-5 17 29 41 0
-6 18 30 42 0
-7 19 31 43 0
-8 20 32 44 0
-9 21 33 45 0
-10 22 34 46 0
-11 23 35 47 0
-12 24 36 48 0
1 2 5 6 7 0
1 2 6 10 0
1 5 10 12 0
1 6 9 11 12 0
2 5 10 0
3 4 9 12 0
3 9 0
4 9 0
5 6 8 10 12 0
5 7 8 11 0
6 7 8 0
7 11 12 0
